NAME : eil76
COMMENT : 76-city
TYPE : TOUR
DIMENSION : 76
TOUR_LENGTH : 553
ERROR : 0.027881
TOUR_SECTION
10
37
64
65
58
13
18
53
12
56
14
36
19
69
59
70
35
68
60
21
63
41
42
40
55
22
48
23
17
49
24
54
30
9
57
71
38
8
31
43
2
15
62
32
72
0
61
27
73
20
46
4
28
47
29
3
44
26
51
33
45
66
75
74
67
1
5
50
16
39
11
25
6
7
34
52
-1
EOF
